;; sequence(s): A92844
;; terms: 2 32 532 7532 117532 1417532 18417532 208417532 2508417532 31508417532 341508417532 4041508417532 45041508417532 475041508417532 5175041508417532 58175041508417532 648175041508417532
;; small program: loop(loop((compr((1 + loop(x + x, x, x)) mod (1 + x), x) + 1) * loop2(x * y, y, x, 1, 2 + (2 * (2 + 2))), 1, y) + x, x, 2)
;; fast program: loop(loop(((compr(((1 + loop(x + x, x - 1, 2)) mod (1 + (x + x))) - 2, x) * 2) + 1) * loop2(x * y, y, x, 1, 2 + (2 * (2 + 2))), 1, y) + x, x, 2)
(set-logic UFNIA)
(define-fun modf ((a Int) (b Int)) Int (ite (< 0 b) (mod a b) (- (mod (- a) (- b)))))
(declare-fun f3 (Int) Int)
(declare-fun g3 (Int) Int)
(declare-fun h3 (Int) Int)
(declare-fun u3 (Int Int) Int)
(declare-fun v3 (Int) Int)
(declare-fun f2 (Int) Int)
(declare-fun g2 (Int) Int)
(declare-fun t2 (Int) Int)
(declare-fun u2 (Int) Int)
(declare-fun v2 (Int) Int)
(declare-fun f4 (Int Int) Int)
(declare-fun g4 (Int Int) Int)
(declare-fun h4 (Int) Int)
(declare-fun i4 () Int)
(declare-fun j4 () Int)
(declare-fun u4 (Int Int Int) Int)
(declare-fun v4 (Int Int Int) Int)
(declare-fun w4 (Int) Int)
(declare-fun f1 (Int) Int)
(declare-fun g1 () Int)
(declare-fun h1 (Int Int) Int)
(declare-fun u1 (Int Int) Int)
(declare-fun v1 (Int Int) Int)
(declare-fun f0 (Int Int) Int)
(declare-fun g0 (Int) Int)
(declare-fun h0 () Int)
(declare-fun u0 (Int Int) Int)
(declare-fun v0 (Int) Int)
(declare-fun small (Int) Int)
(declare-fun f8 (Int) Int)
(declare-fun g8 (Int) Int)
(declare-fun h8 () Int)
(declare-fun u8 (Int Int) Int)
(declare-fun v8 (Int) Int)
(declare-fun f7 (Int) Int)
(declare-fun g7 (Int) Int)
(declare-fun t7 (Int) Int)
(declare-fun u7 (Int) Int)
(declare-fun v7 (Int) Int)
(declare-fun f9 (Int Int) Int)
(declare-fun g9 (Int Int) Int)
(declare-fun h9 (Int) Int)
(declare-fun i9 () Int)
(declare-fun j9 () Int)
(declare-fun u9 (Int Int Int) Int)
(declare-fun v9 (Int Int Int) Int)
(declare-fun w9 (Int) Int)
(declare-fun f6 (Int) Int)
(declare-fun g6 () Int)
(declare-fun h6 (Int Int) Int)
(declare-fun u6 (Int Int) Int)
(declare-fun v6 (Int Int) Int)
(declare-fun f5 (Int Int) Int)
(declare-fun g5 (Int) Int)
(declare-fun h5 () Int)
(declare-fun u5 (Int Int) Int)
(declare-fun v5 (Int) Int)
(declare-fun fast (Int) Int)
(assert (forall ((x Int)) (= (f3 x) (+ x x))))
(assert (forall ((x Int)) (= (g3 x) x)))
(assert (forall ((x Int)) (= (h3 x) x)))
(assert (forall ((x Int) (y Int)) (= (u3 x y) (ite (<= x 0) y (f3 (u3 (- x 1) y))))))
(assert (forall ((x Int)) (= (v3 x) (u3 (g3 x) (h3 x)))))
(assert (forall ((x Int)) (= (f2 x) (modf (+ 1 (v3 x)) (+ 1 x)))))
(assert (forall ((x Int)) (= (g2 x) x)))
(assert (forall ((x Int)) (= (t2 x) (ite (<= (f2 x) 0) x (t2 (+ x 1))))))
(assert (forall ((x Int)) (= (u2 x) (ite (<= x 0) (t2 0) (t2 (+ (u2 (- x 1)) 1))))))
(assert (forall ((x Int)) (= (v2 x) (u2 (g2 x)))))
(assert (forall ((x Int) (y Int)) (= (f4 x y) (* x y))))
(assert (forall ((x Int) (y Int)) (= (g4 x y) y)))
(assert (forall ((x Int)) (= (h4 x) x)))
(assert (= i4 1))
(assert (= j4 (+ 2 (* 2 (+ 2 2)))))
(assert (forall ((x Int) (y Int) (z Int)) (= (u4 x y z) (ite (<= x 0) y (f4 (u4 (- x 1) y z) (v4 (- x 1) y z))))))
(assert (forall ((x Int) (y Int) (z Int)) (= (v4 x y z) (ite (<= x 0) z (g4 (u4 (- x 1) y z) (v4 (- x 1) y z))))))
(assert (forall ((x Int)) (= (w4 x) (u4 (h4 x) i4 j4))))
(assert (forall ((x Int)) (= (f1 x) (* (+ (v2 x) 1) (w4 x)))))
(assert (= g1 1))
(assert (forall ((x Int) (y Int)) (= (h1 x y) y)))
(assert (forall ((x Int) (y Int)) (= (u1 x y) (ite (<= x 0) y (f1 (u1 (- x 1) y))))))
(assert (forall ((x Int) (y Int)) (= (v1 x y) (u1 g1 (h1 x y)))))
(assert (forall ((x Int) (y Int)) (= (f0 x y) (+ (v1 x y) x))))
(assert (forall ((x Int)) (= (g0 x) x)))
(assert (= h0 2))
(assert (forall ((x Int) (y Int)) (= (u0 x y) (ite (<= x 0) y (f0 (u0 (- x 1) y) x)))))
(assert (forall ((x Int)) (= (v0 x) (u0 (g0 x) h0))))
(assert (forall ((x Int)) (= (small x) (v0 x))))
(assert (forall ((x Int)) (= (f8 x) (+ x x))))
(assert (forall ((x Int)) (= (g8 x) (- x 1))))
(assert (= h8 2))
(assert (forall ((x Int) (y Int)) (= (u8 x y) (ite (<= x 0) y (f8 (u8 (- x 1) y))))))
(assert (forall ((x Int)) (= (v8 x) (u8 (g8 x) h8))))
(assert (forall ((x Int)) (= (f7 x) (- (modf (+ 1 (v8 x)) (+ 1 (+ x x))) 2))))
(assert (forall ((x Int)) (= (g7 x) x)))
(assert (forall ((x Int)) (= (t7 x) (ite (<= (f7 x) 0) x (t7 (+ x 1))))))
(assert (forall ((x Int)) (= (u7 x) (ite (<= x 0) (t7 0) (t7 (+ (u7 (- x 1)) 1))))))
(assert (forall ((x Int)) (= (v7 x) (u7 (g7 x)))))
(assert (forall ((x Int) (y Int)) (= (f9 x y) (* x y))))
(assert (forall ((x Int) (y Int)) (= (g9 x y) y)))
(assert (forall ((x Int)) (= (h9 x) x)))
(assert (= i9 1))
(assert (= j9 (+ 2 (* 2 (+ 2 2)))))
(assert (forall ((x Int) (y Int) (z Int)) (= (u9 x y z) (ite (<= x 0) y (f9 (u9 (- x 1) y z) (v9 (- x 1) y z))))))
(assert (forall ((x Int) (y Int) (z Int)) (= (v9 x y z) (ite (<= x 0) z (g9 (u9 (- x 1) y z) (v9 (- x 1) y z))))))
(assert (forall ((x Int)) (= (w9 x) (u9 (h9 x) i9 j9))))
(assert (forall ((x Int)) (= (f6 x) (* (+ (* (v7 x) 2) 1) (w9 x)))))
(assert (= g6 1))
(assert (forall ((x Int) (y Int)) (= (h6 x y) y)))
(assert (forall ((x Int) (y Int)) (= (u6 x y) (ite (<= x 0) y (f6 (u6 (- x 1) y))))))
(assert (forall ((x Int) (y Int)) (= (v6 x y) (u6 g6 (h6 x y)))))
(assert (forall ((x Int) (y Int)) (= (f5 x y) (+ (v6 x y) x))))
(assert (forall ((x Int)) (= (g5 x) x)))
(assert (= h5 2))
(assert (forall ((x Int) (y Int)) (= (u5 x y) (ite (<= x 0) y (f5 (u5 (- x 1) y) x)))))
(assert (forall ((x Int)) (= (v5 x) (u5 (g5 x) h5))))
(assert (forall ((x Int)) (= (fast x) (v5 x))))
(assert (exists ((c Int)) (and (>= c 0) (not (= (small c) (fast c))))))
(check-sat)
